experiments/eusolverbv/6/DirectTrainGenes/11000101111000111100110000000100011011100101000/243_.sl

(set-logic BV)

(define-fun shr1 ((x (BitVec 64))) (BitVec 64) (bvlshr x #x0000000000000001))
(define-fun shr4 ((x (BitVec 64))) (BitVec 64) (bvlshr x #x0000000000000004))
(define-fun shr16 ((x (BitVec 64))) (BitVec 64) (bvlshr x #x0000000000000010))
(define-fun shl1 ((x (BitVec 64))) (BitVec 64) (bvshl x #x0000000000000001))
(define-fun if0 ((x (BitVec 64)) (y (BitVec 64)) (z (BitVec 64))) (BitVec 64) (ite (= x #x0000000000000001) y z))
(define-fun func26  ((A (BitVec 64)) (B (BitVec 64)) (C (BitVec 64)) (D (BitVec 64)) ) (BitVec 64) (bvand (bvlshr (bvlshr C  D ) B ) A ))
(define-fun func27  ((A (BitVec 64)) (B (BitVec 64)) (C (BitVec 64)) ) (BitVec 64) (bvand (bvlshr B  C ) A ))
(define-fun func28  ((A (BitVec 64)) (B (BitVec 64)) ) (BitVec 64) (bvand (bvlshr B  #x0000000000000001 ) A ))
(define-fun func29  ((A (BitVec 64)) (B (BitVec 64)) ) (BitVec 64) (bvand (bvlshr B  #x0000000000000010 ) A ))
(define-fun func30  ((A (BitVec 64)) (B (BitVec 64)) ) (BitVec 64) (bvand (bvlshr B  #x0000000000000004 ) A ))
(define-fun func31  ((A (BitVec 64)) (B (BitVec 64)) ) (BitVec 64) (bvand (bvlshr A  B ) #x0000000000000001 ))
(define-fun func32  ((A (BitVec 64)) ) (BitVec 64) (bvand A  #x0000000000000001 ))
(define-fun func33  ((A (BitVec 64)) (B (BitVec 64)) (C (BitVec 64)) (D (BitVec 64)) ) (BitVec 64) (bvlshr (bvlshr (bvlshr C  D ) B ) A ))
(define-fun func34  ((A (BitVec 64)) (B (BitVec 64)) (C (BitVec 64)) ) (BitVec 64) (bvlshr (bvlshr (bvlshr C  #x0000000000000010 ) B ) A ))
(define-fun func35  ((A (BitVec 64)) (B (BitVec 64)) (C (BitVec 64)) ) (BitVec 64) (bvlshr (bvlshr B  C ) A ))
(define-fun func36  ((A (BitVec 64)) (B (BitVec 64)) ) (BitVec 64) (bvlshr (bvlshr B  #x0000000000000010 ) A ))
(define-fun func37  ((A (BitVec 64)) (B (BitVec 64)) ) (BitVec 64) (bvlshr (bvlshr B  #x0000000000000004 ) A ))
(define-fun func38  ((A (BitVec 64)) (B (BitVec 64)) ) (BitVec 64) (bvlshr (bvlshr B  #x0000000000000001 ) A ))
(define-fun func39  ((A (BitVec 64)) (B (BitVec 64)) ) (BitVec 64) (bvlshr (bvlshr A  B ) #x0000000000000001 ))
(define-fun func40  ((A (BitVec 64)) (B (BitVec 64)) ) (BitVec 64) (bvlshr (bvlshr A  B ) #x0000000000000004 ))
(define-fun func41  ((A (BitVec 64)) (B (BitVec 64)) ) (BitVec 64) (bvlshr A  B ))
(define-fun func42  ((A (BitVec 64)) (B (BitVec 64)) (C (BitVec 64)) ) (BitVec 64) (bvlshr (bvshl B  C ) A ))
(define-fun func43  ((A (BitVec 64)) (B (BitVec 64)) ) (BitVec 64) (bvlshr (bvshl B  #x0000000000000001 ) A ))
(define-fun func44  ((A (BitVec 64)) (B (BitVec 64)) (C (BitVec 64)) ) (BitVec 64) (bvlshr (bvadd B  C ) A ))
(define-fun func45  ((A (BitVec 64)) (B (BitVec 64)) ) (BitVec 64) (bvlshr (bvnot B ) A ))
(define-fun func46  ((A (BitVec 64)) ) (BitVec 64) (bvlshr (bvnot #x0000000000000000 ) A ))
(define-fun func47  ((A (BitVec 64)) ) (BitVec 64) (bvlshr (bvnot A ) #x0000000000000010 ))
(define-fun func48  ((A (BitVec 64)) (B (BitVec 64)) (C (BitVec 64)) ) (BitVec 64) (bvor (bvlshr B  C ) A ))
(define-fun func49  ((A (BitVec 64)) ) (BitVec 64) (bvor A  #x0000000000000001 ))
(define-fun func50  ((A (BitVec 64)) (B (BitVec 64)) (C (BitVec 64)) ) (BitVec 64) (bvshl (bvlshr B  C ) A ))
(define-fun func51  ((A (BitVec 64)) (B (BitVec 64)) ) (BitVec 64) (bvshl (bvlshr B  #x0000000000000001 ) A ))
(define-fun func52  ((A (BitVec 64)) (B (BitVec 64)) ) (BitVec 64) (bvshl (bvlshr A  B ) #x0000000000000001 ))
(define-fun func54  ((A (BitVec 64)) (B (BitVec 64)) (C (BitVec 64)) ) (BitVec 64) (bvshl (bvshl B  C ) A ))
(define-fun func55  ((A (BitVec 64)) (B (BitVec 64)) ) (BitVec 64) (bvshl (bvshl B  #x0000000000000001 ) A ))
(define-fun func56  ((A (BitVec 64)) (B (BitVec 64)) ) (BitVec 64) (bvshl (bvshl A  B ) #x0000000000000001 ))
(define-fun func57  ((A (BitVec 64)) (B (BitVec 64)) ) (BitVec 64) (bvshl (bvnot B ) A ))
(define-fun func58  ((A (BitVec 64)) ) (BitVec 64) (bvshl (bvnot A ) #x0000000000000001 ))
(define-fun func59  ((A (BitVec 64)) (B (BitVec 64)) (C (BitVec 64)) ) (BitVec 64) (bvadd (bvlshr B  C ) A ))
(define-fun func60  ((A (BitVec 64)) ) (BitVec 64) (bvadd A  #x0000000000000001 ))
(define-fun func61  ((A (BitVec 64)) (B (BitVec 64)) (C (BitVec 64)) ) (BitVec 64) (bvadd (bvshl B  C ) A ))
(define-fun func62  ((A (BitVec 64)) (B (BitVec 64)) ) (BitVec 64) (bvadd (bvshl B  #x0000000000000001 ) A ))
(define-fun func63  ((A (BitVec 64)) ) (BitVec 64) (bvnot (bvshl A  #x0000000000000001 )))
(synth-fun f ( (x (BitVec 64))) (BitVec 64)
(
(Start (BitVec 64) (
   #x0000000000000000
   #x0000000000000001
   x
   (func26 Start Start Start Start)
   (func27 Start Start Start)
   (func31 Start Start)
   (func33 Start Start Start Start)
   (func34 Start Start Start)
   (func35 Start Start Start)
   (func36 Start Start)
   (func40 Start Start)
   (func41 Start Start)
   (func42 Start Start Start)
   (func43 Start Start)
   (func46 Start)
   (func47 Start)
   (func56 Start Start)
   (func60 Start)
   (func61 Start Start Start)
   (func63 Start)
   (shr1 Start)
   (shr4 Start)
   (bvand Start Start)
   (bvxor Start Start)
   (bvadd Start Start)
   (if0 Start Start Start)
))
))
(constraint (= (f #xf5a26e18bdb61d5e) #xf5a26e18bdb61d5e))
(constraint (= (f #x07301a26c76645a0) #x07301a26c76645a0))
(constraint (= (f #x8d12c971d62043b9) #x8d12c971d62043b8))
(constraint (= (f #x570574e32aea5c3d) #x570574e32aea5c3c))
(constraint (= (f #x5ed79a0effee4524) #x5ed79a0effee4524))
(constraint (= (f #xc78955c88faab136) #xc78955c88faab136))
(constraint (= (f #x627241b7b2caa519) #x627241b7b2caa518))
(constraint (= (f #xc896b2047f0eb073) #xc896b2047f0eb072))
(constraint (= (f #x22b684a505e4c815) #x22b684a505e4c814))
(constraint (= (f #x8669542174dcd074) #x8669542174dcd074))
(constraint (= (f #x00000000000249ef) #x00000000000249ee))
(constraint (= (f #x000000000002513e) #x000000000002513e))
(constraint (= (f #x0000000000024434) #x0000000000024434))
(constraint (= (f #x0000000000020805) #x0000000000020804))
(constraint (= (f #x0000000000023766) #x0000000000023766))
(constraint (= (f #x6bb893e7e1df31f7) #x94476c181e20ce09))
(constraint (= (f #x9976e1cadb316447) #x66891e3524ce9bb9))
(constraint (= (f #x2658ce56f8e91230) #xd9a731a90716edce))
(constraint (= (f #x90338ab496f571c3) #x6fcc754b690a8e3d))
(constraint (= (f #x7231f8d50ac13866) #x8dce072af53ec798))
(constraint (= (f #x0000000000000001) #x0000000000000000))
(constraint (= (f #x000000000002dba1) #x000000000002dba0))
(constraint (= (f #x000000000002df46) #x000000000002df46))
(constraint (= (f #x000000000002802b) #x000000000002802a))
(constraint (= (f #x000000000002f31a) #x000000000002f31a))
(constraint (= (f #x000000000002fc9a) #x000000000002fc9a))
(constraint (= (f #x30405cbdcd5da905) #xcfbfa34232a256fb))
(constraint (= (f #x6a0adfdea3d1c77e) #x95f520215c2e3880))
(constraint (= (f #x8b76e544dee9ef3f) #x74891abb211610c1))
(constraint (= (f #x96bd7030d5dbc00a) #x69428fcf2a243ff4))
(constraint (= (f #xf8f54e049ba3c04d) #x070ab1fb645c3fb3))
(constraint (= (f #xffff0000ffff0002) #x0000ffff0000fffc))
(constraint (= (f #x0000000000031d52) #xffffffffffffffff))
(constraint (= (f #x0000000000034aa2) #xffffffffffffffff))
(constraint (= (f #x0000000000034619) #xffffffffffffffff))
(constraint (= (f #x0000000000031a2c) #xffffffffffffffff))
(constraint (= (f #x0000000000030ad4) #xffffffffffffffff))
(constraint (= (f #xffff80003fffe002) #x00007fffc0001ffc))
(constraint (= (f #x0000000000038e5d) #xffffffffffffffff))
(constraint (= (f #x000000000003bbc3) #xffffffffffffffff))
(constraint (= (f #x0000000000038c0b) #xffffffffffffffff))
(constraint (= (f #x000000000003fc2f) #xffffffffffffffff))
(constraint (= (f #x000000000003e3ae) #xffffffffffffffff))
(constraint (= (f #x6949578d85436dc4) #x96b6a8727abc923a))
(constraint (= (f #x15eeeec5fee010c5) #x15eeeec5fee010c4))
(constraint (= (f #xe29cc6acbbcc132d) #xe29cc6acbbcc132c))
(constraint (= (f #xcac3578de82e7ebb) #xcac3578de82e7eba))
(constraint (= (f #x65187328534bc6a2) #x9ae78cd7acb4395c))
(constraint (= (f #x5c2ce91554b4392a) #x5c2ce91554b4392a))
(constraint (= (f #x9bf9f12996492c0c) #x64060ed669b6d3f2))
(constraint (= (f #x5e9e135f7d5ce85e) #x5e9e135f7d5ce85e))
(constraint (= (f #x77a66c7c7d4e08e2) #x77a66c7c7d4e08e2))
(constraint (= (f #x3fc8ee8a78ee9201) #x3fc8ee8a78ee9200))
(constraint (= (f #x000000000003fe0f) #xffffffffffffffff))
(constraint (= (f #x3a0ca0a90fe1ab93) #xc5f35f56f01e546d))
(constraint (= (f #x0000000000000001) #x0000000000000000))
(constraint (= (f #xffff0000ffff0002) #x0000ffff0000fffc))
(constraint (= (f #xffff80003fffe002) #x00007fffc0001ffc))
(constraint (= (f #x000000000003354a) #xffffffffffffffff))
(constraint (= (f #x8f402a937d3fcdfd) #x70bfd56c82c03203))
(constraint (= (f #x0000000000029e2a) #x0000000000029e2a))
(constraint (= (f #x7a75dc4eea430127) #x858a23b115bcfed9))
(constraint (= (f #x000000000003f2ac) #xffffffffffffffff))
(constraint (= (f #x000000000003ef9a) #xffffffffffffffff))
(constraint (= (f #x000000000002fd32) #x000000000002fd32))
(constraint (= (f #x0000000000026742) #x0000000000026742))
(check-synth)
