experiments/eusolverbv/6/DirectTrainGenes/11000101111000111100110000000100011011100101000/243_.out
(define-fun f ((x (BitVec 64))) (BitVec 64)
     (if0 (func31 (func47 x) #x0000000000000000) (func43 #x0000000000000000 (shr1 x)) (if0 (func36 #x0000000000000001 x) (func46 #x0000000000000000) (if0 (func31 x #x0000000000000000) (func63 (shr1 x)) (func60 (func63 (func60 (shr1 x))))))))
1.9972032271325588
